(declare-sort S0 0)

(declare-const v0 Bool)
(declare-const v1 Bool)
(declare-const v2 Bool)
(declare-const v3 Bool)
(declare-const v4 Bool)
(declare-const v5 Bool)
(declare-const v6 Bool)
(declare-const v7 Bool)
(assert true)
(assert true)
(declare-const arr--2551871311201104581_-3162329498268818509-0 (Array (_ BitVec 10) Bool))
(assert true)
(declare-const arr--2551871311201104581_-6671985692370897704-0 (Array (_ BitVec 10) (Array (_ BitVec 10) Bool)))
(assert true)
(assert true)
(push)
(assert true)
(declare-const arr--2551871311194609431_-3428171751036168711-0 (Array (_ BitVec 12) (Array (_ BitVec 10) (Array (_ BitVec 10) Bool))))
(assert true)
(declare-const arr--2551871311194609431_-3162329498268818509-0 (Array (_ BitVec 12) Bool))
(declare-const v8 Bool)
(assert true)
(declare-const arr--2551871311194609431_-3792951240806211522-0 (Array (_ BitVec 12) (Array (_ BitVec 12) Bool)))
(pop)
(declare-const v9 Bool)
(declare-const arr--2551871311201104581_-3162329498268818509-3 (Array (_ BitVec 10) Bool))
(assert true)
(declare-const v10 Bool)
(assert true)
(push)
(declare-const _13-0 (_ BitVec 13))
(declare-const arr--2551871311201104581_-2551871311201104581-0 (Array (_ BitVec 10) (_ BitVec 10)))
(declare-const v11 Bool)
(declare-const arr--2551871311197857006_-2551871311201104581-0 (Array (_ BitVec 9) (_ BitVec 10)))
(assert true)
(assert (distinct true true true true (= (_ bv0 10) (_ bv0 10) (_ bv0 10) (bvsub #b1101101011 #b1101101011) (_ bv0 10))))
(declare-const v12 Bool)
(assert true)
(declare-const v13 Bool)
(declare-const arr--2551871311201104581_-2551871311201104581-3 (Array (_ BitVec 10) (_ BitVec 10)))
(pop)
(declare-const v14 Bool)
(declare-const _13-0 (_ BitVec 13))
(check-sat)
(assert (= (_ bv0 10) (_ bv0 10) (bvsub #b1101101011 #b1101101011) (bvsub #b1101101011 #b1101101011) (_ bv0 10)))
(declare-const v15 Bool)
(check-sat)
(assert (xor (= _13-0 _13-0 _13-0 _13-0 _13-0) true true true true true true true true true true))
